
MOSEK Version 8.0.0.51 (Build date: 2016-12-14 12:53:47)
Copyright (c) MOSEK ApS, Denmark. WWW: mosek.com
Platform: Linux/64-X86

Problem
  Name                   :                 
  Objective sense        : min             
  Type                   : LO (linear optimization problem)
  Constraints            : 1442            
  Cones                  : 0               
  Scalar variables       : 309             
  Matrix variables       : 0               
  Integer variables      : 273             

Optimizer started.
Mixed integer optimizer started.
Threads used: 72
Presolve started.
Presolve terminated. Time = 0.03
Presolved problem: 308 variables, 749 constraints, 2666 non-zeros
Presolved problem: 0 general integer, 273 binary, 35 continuous
Clique table size: 34
BRANCHES RELAXS   ACT_NDS  DEPTH    BEST_INT_OBJ         BEST_RELAX_OBJ       REL_GAP(%)  TIME  
0        1        0        0        NA                   9.4145056764e+01     NA          0.3   
Cut generation started.
0        2        0        0        NA                   9.4145056764e+01     NA          0.3   
Cut generation terminated. Time = 0.01
15       18       14       3        NA                   9.4145056768e+01     NA          0.6   
28       31       27       4        NA                   9.4145058124e+01     NA          0.7   
54       57       47       5        NA                   9.4145078417e+01     NA          0.8   
97       100      78       5        NA                   9.4145078562e+01     NA          0.9   
159      162      136      5        NA                   9.4145087906e+01     NA          1.0   
219      222      194      5        NA                   9.4145087906e+01     NA          1.2   
363      365      332      7        NA                   9.4145088428e+01     NA          1.4   
651      653      594      10       NA                   9.4145104363e+01     NA          1.7   
1227     1226     910      16       NA                   9.4190683609e+01     NA          2.0   
2091     2072     1200     23       NA                   9.4190683609e+01     NA          2.3   
3243     3209     1938     17       NA                   9.4190683609e+01     NA          2.6   
5081     5007     2924     22       NA                   9.4230045391e+01     NA          3.0   
7057     6948     4010     27       NA                   9.4230129334e+01     NA          3.3   
9017     8868     5026     41       NA                   9.4341298727e+01     NA          3.7   
10986    10813    6017     16       9.7903393192e+01     9.4343959034e+01     3.64        4.3   
12938    12729    7059     26       9.7903393192e+01     9.4344058099e+01     3.64        4.9   
14948    14701    8019     20       9.7903393192e+01     9.4461116593e+01     3.52        5.3   
14963    14716    8019     20       9.7903393192e+01     9.4461116593e+01     3.52        5.4   
14983    14733    8019     20       9.7903393192e+01     9.4461116593e+01     3.52        5.4   
14994    14744    8019     20       9.7903393192e+01     9.4461116593e+01     3.52        5.4   
15010    14759    8019     20       9.7903393192e+01     9.4461116593e+01     3.52        5.5   
15023    14771    8019     20       9.7903393192e+01     9.4461116593e+01     3.52        5.5   
15037    14782    8019     20       9.7903393192e+01     9.4461116593e+01     3.52        5.6   
17037    16747    9007     17       9.6995964157e+01     9.4475976337e+01     2.60        6.1   
An optimal solution satisfying the relative gap tolerance of 3.50e+00(%) has been located.
The relative gap is 2.60e+00(%).

Objective of best integer solution : 9.699596415653e+01      
Best objective bound               : 9.447597633664e+01      
Construct solution objective       : Not employed
Construct solution # roundings     : 0
User objective cut value           : 0
Number of cuts generated           : 5
  Number of Gomory cuts            : 1
  Number of CMIR cuts              : 4
Number of branches                 : 17037
Number of relaxations solved       : 16747
Number of interior point iterations: 23
Number of simplex iterations       : 284767
Time spend presolving the root     : 0.03
Time spend in the heuristic        : 0.00
Time spend in the sub optimizers   : 0.00
  Time spend optimizing the root   : 0.24
Mixed integer optimizer terminated. Time: 6.10

Optimizer terminated. Time: 6.15    

Integer solution solution summary
  Problem status  : PRIMAL_FEASIBLE
  Solution status : INTEGER_OPTIMAL
  Primal.  obj: 9.6995964157e+01    nrm: 1e+04    Viol.  con: 2e-12    var: 7e-32    itg: 7e-32  
Optimizer summary
  Optimizer                 -                        time: 6.15    
    Interior-point          - iterations : 0         time: 0.00    
      Basis identification  -                        time: 0.00    
        Primal              - iterations : 0         time: 0.00    
        Dual                - iterations : 0         time: 0.00    
        Clean primal        - iterations : 0         time: 0.00    
        Clean dual          - iterations : 0         time: 0.00    
    Simplex                 -                        time: 0.00    
      Primal simplex        - iterations : 0         time: 0.00    
      Dual simplex          - iterations : 0         time: 0.00    
    Mixed integer           - relaxations: 16747     time: 6.10    

